jobs  (incl. supersource/sink ):	102
RESOURCES
- renewable                 : 2 R
- nonrenewable              : 4 N
- doubly constrained        : 0 D
************************************************************************
PRECEDENCE RELATIONS:
jobnr.    #modes  #successors   successors
1	1	20		2 3 4 5 6 7 8 9 11 12 13 14 15 16 18 19 22 27 28 34 
2	6	14		52 44 41 37 36 35 31 30 29 24 23 21 20 17 
3	6	9		45 43 38 37 36 33 26 23 10 
4	6	15		58 52 51 50 47 45 43 41 40 37 36 35 33 32 30 
5	6	5		45 36 35 33 10 
6	6	9		56 52 50 48 47 44 37 23 20 
7	6	8		56 51 49 47 39 30 29 17 
8	6	11		58 55 53 51 49 47 44 43 38 36 25 
9	6	11		69 56 54 53 50 49 48 47 43 37 23 
10	6	5		52 50 44 42 21 
11	6	13		69 62 61 59 58 57 55 54 53 50 43 38 36 
12	6	7		68 51 50 47 43 37 26 
13	6	7		68 58 51 48 47 39 26 
14	6	10		61 58 57 56 51 49 47 46 39 33 
15	6	9		56 53 50 47 46 45 44 39 37 
16	6	8		70 59 58 57 53 47 45 29 
17	6	5		62 58 43 33 26 
18	6	5		58 49 47 37 26 
19	6	14		69 68 62 61 60 59 58 57 56 55 50 49 46 43 
20	6	13		69 62 61 60 57 55 54 53 51 49 46 43 42 
21	6	12		68 63 61 58 57 56 55 54 53 51 47 39 
22	6	8		63 59 58 57 55 44 40 37 
23	6	14		70 68 67 66 64 62 61 60 59 58 57 55 51 46 
24	6	11		75 68 62 61 60 59 54 48 47 46 43 
25	6	12		101 75 70 69 68 66 60 59 57 54 46 45 
26	6	11		70 69 67 61 60 59 57 55 54 53 46 
27	6	8		63 59 57 56 53 47 45 37 
28	6	10		81 70 69 64 63 60 55 52 43 42 
29	6	7		69 68 62 55 54 50 40 
30	6	14		79 71 70 69 68 67 65 63 62 61 60 59 57 55 
31	6	10		75 74 69 65 62 60 59 57 50 49 
32	6	8		68 62 61 60 59 55 53 46 
33	6	13		92 79 75 74 72 70 69 68 67 65 63 60 53 
34	6	8		101 79 69 68 62 57 53 43 
35	6	14		101 91 79 75 74 72 70 66 65 64 63 62 60 57 
36	6	12		101 93 82 81 75 71 70 68 67 66 60 46 
37	6	14		101 91 82 81 80 79 70 67 66 65 64 62 61 60 
38	6	14		101 93 92 81 79 75 73 72 68 67 66 65 60 56 
39	6	13		101 91 81 79 75 74 69 67 66 65 64 62 59 
40	6	15		101 100 92 91 81 80 79 75 73 72 66 65 64 61 60 
41	6	13		101 100 98 92 81 75 74 72 66 65 64 63 56 
42	6	12		99 98 92 79 78 77 74 73 72 68 67 66 
43	6	12		98 94 92 91 82 78 77 74 73 72 67 65 
44	6	12		97 93 92 89 79 78 77 71 69 68 66 65 
45	6	8		100 98 97 96 91 64 62 61 
46	6	11		100 98 96 94 92 80 79 78 72 65 63 
47	6	9		101 100 96 94 74 73 72 65 64 
48	6	9		101 97 96 91 80 77 66 65 57 
49	6	12		100 99 98 97 96 92 88 80 76 73 70 64 
50	6	10		101 93 92 91 79 77 73 71 67 66 
51	6	15		101 100 99 98 96 95 94 93 92 90 88 79 77 73 72 
52	6	14		100 98 97 96 95 94 91 88 87 85 80 76 74 73 
53	6	7		98 96 86 82 81 66 64 
54	6	13		98 94 93 90 89 88 81 80 78 77 76 72 71 
55	6	14		101 99 98 96 95 94 92 91 90 86 85 83 82 75 
56	6	10		99 97 96 90 88 82 78 77 71 70 
57	6	11		100 95 94 88 86 85 84 82 81 78 76 
58	6	11		96 95 94 90 88 86 85 79 78 77 76 
59	6	9		98 96 95 93 89 88 78 77 72 
60	6	12		98 97 96 95 90 89 88 87 86 85 84 76 
61	6	10		99 95 89 88 86 85 84 77 76 74 
62	6	7		94 92 90 85 84 78 73 
63	6	6		88 87 85 84 77 73 
64	6	5		95 90 78 77 71 
65	6	7		99 95 90 88 86 84 76 
66	6	7		95 94 90 88 87 85 76 
67	6	6		100 97 96 89 88 76 
68	6	6		96 94 91 87 86 80 
69	6	6		99 98 94 88 86 85 
70	6	4		94 87 84 83 
71	6	3		85 84 83 
72	6	3		97 86 85 
73	6	2		89 86 
74	6	2		93 90 
75	6	2		87 84 
76	6	1		83 
77	6	1		83 
78	6	1		87 
79	6	1		84 
80	6	1		84 
81	6	1		83 
82	6	1		89 
83	6	1		102 
84	6	1		102 
85	6	1		102 
86	6	1		102 
87	6	1		102 
88	6	1		102 
89	6	1		102 
90	6	1		102 
91	6	1		102 
92	6	1		102 
93	6	1		102 
94	6	1		102 
95	6	1		102 
96	6	1		102 
97	6	1		102 
98	6	1		102 
99	6	1		102 
100	6	1		102 
101	6	1		102 
102	1	0		
************************************************************************
REQUESTS/DURATIONS
jobnr.	mode	dur	R1	R2	N1	N2	N3	N4	
------------------------------------------------------------------------
1	1	0	0	0	0	0	0	0	
2	1	2	3	2	9	7	10	8	
	2	4	3	2	9	6	9	8	
	3	5	3	2	9	5	6	8	
	4	7	3	1	9	5	6	7	
	5	13	3	1	9	5	3	7	
	6	19	3	1	9	4	2	6	
3	1	2	2	5	18	19	18	15	
	2	3	2	4	16	14	14	15	
	3	7	2	3	13	10	13	13	
	4	12	2	3	10	10	13	13	
	5	16	2	1	4	7	10	11	
	6	19	2	1	4	1	8	10	
4	1	3	3	3	13	14	16	18	
	2	5	3	2	12	11	15	15	
	3	10	3	2	12	9	15	14	
	4	15	2	1	11	9	14	13	
	5	17	2	1	11	5	12	10	
	6	18	2	1	11	2	12	8	
5	1	1	5	2	2	17	18	17	
	2	7	5	2	2	16	18	13	
	3	8	5	2	2	12	17	13	
	4	13	5	2	2	8	16	12	
	5	16	5	2	2	6	16	9	
	6	20	5	2	2	4	15	8	
6	1	5	3	5	15	13	13	13	
	2	7	2	4	13	12	11	9	
	3	10	2	3	11	12	8	7	
	4	11	2	3	10	12	6	6	
	5	12	2	2	9	12	5	3	
	6	17	2	2	7	12	3	3	
7	1	8	2	3	17	11	8	14	
	2	15	2	3	17	8	7	14	
	3	16	2	3	16	7	7	13	
	4	17	2	2	14	5	7	10	
	5	19	2	2	14	2	7	10	
	6	20	2	1	12	1	7	9	
8	1	1	3	3	16	19	10	12	
	2	8	2	3	15	17	10	12	
	3	9	2	3	13	15	10	12	
	4	14	1	2	12	13	10	12	
	5	19	1	1	11	12	10	12	
	6	20	1	1	8	10	10	12	
9	1	1	1	4	16	4	13	7	
	2	2	1	4	14	4	13	7	
	3	3	1	4	12	4	13	5	
	4	11	1	4	10	4	12	3	
	5	18	1	4	10	4	11	3	
	6	20	1	4	8	4	11	2	
10	1	6	2	2	12	9	11	14	
	2	7	2	2	9	9	11	14	
	3	8	2	2	9	7	10	13	
	4	11	2	2	7	6	8	11	
	5	18	2	2	6	6	7	11	
	6	19	2	2	6	5	6	10	
11	1	2	4	3	1	16	18	18	
	2	11	3	2	1	15	18	18	
	3	14	2	2	1	14	16	17	
	4	15	2	2	1	13	15	15	
	5	16	2	2	1	13	13	12	
	6	17	1	2	1	12	12	12	
12	1	3	2	3	10	20	19	17	
	2	6	2	2	9	19	19	16	
	3	7	2	2	8	19	19	16	
	4	9	1	1	6	18	19	15	
	5	15	1	1	3	18	19	14	
	6	18	1	1	2	17	19	14	
13	1	6	3	1	9	12	17	10	
	2	9	3	1	6	12	14	9	
	3	10	3	1	5	11	12	9	
	4	11	2	1	4	10	10	9	
	5	12	2	1	3	9	7	8	
	6	18	1	1	3	8	3	8	
14	1	1	4	5	18	13	11	16	
	2	4	4	4	14	11	9	15	
	3	9	4	4	14	10	6	14	
	4	11	4	4	8	10	6	14	
	5	13	4	3	7	8	5	13	
	6	18	4	3	3	7	2	12	
15	1	3	1	5	13	11	10	18	
	2	5	1	4	12	10	10	17	
	3	12	1	4	11	8	9	17	
	4	17	1	3	9	7	9	17	
	5	18	1	3	8	7	7	16	
	6	19	1	3	8	5	7	15	
16	1	3	1	4	6	17	20	13	
	2	4	1	4	6	15	20	12	
	3	5	1	4	6	10	20	11	
	4	12	1	4	5	7	20	11	
	5	13	1	4	5	7	20	10	
	6	14	1	4	4	4	20	9	
17	1	6	2	4	8	13	14	12	
	2	10	1	3	7	11	13	11	
	3	12	1	3	7	10	12	9	
	4	13	1	3	7	7	11	7	
	5	14	1	3	6	6	10	7	
	6	15	1	3	6	4	10	4	
18	1	1	5	4	11	8	15	6	
	2	2	4	4	11	6	14	5	
	3	3	4	4	11	5	14	5	
	4	10	4	3	11	5	14	4	
	5	11	4	2	11	4	14	3	
	6	20	4	2	11	3	14	3	
19	1	7	2	5	17	9	8	17	
	2	10	2	5	15	9	7	17	
	3	12	2	5	13	8	7	17	
	4	14	2	5	12	6	6	17	
	5	16	2	5	11	5	6	17	
	6	20	2	5	8	4	5	17	
20	1	5	5	5	15	12	9	15	
	2	10	4	4	13	9	8	15	
	3	13	4	4	11	8	7	12	
	4	14	4	4	10	7	6	12	
	5	16	3	4	9	6	6	11	
	6	20	3	4	7	5	5	9	
21	1	2	2	2	18	5	18	15	
	2	4	2	2	16	5	18	14	
	3	5	2	2	15	5	17	14	
	4	10	2	2	15	5	17	13	
	5	12	2	2	13	5	16	13	
	6	14	2	2	13	5	16	12	
22	1	6	5	5	8	3	19	14	
	2	12	5	4	8	3	17	13	
	3	14	5	4	8	3	16	11	
	4	15	5	4	8	2	16	8	
	5	17	5	3	8	2	15	4	
	6	18	5	3	8	2	14	3	
23	1	3	1	4	19	14	14	11	
	2	6	1	3	16	13	13	10	
	3	7	1	3	14	13	13	9	
	4	8	1	3	12	13	13	8	
	5	18	1	3	12	13	13	6	
	6	20	1	3	9	13	13	6	
24	1	4	2	4	18	5	16	16	
	2	5	2	4	17	4	15	16	
	3	9	2	4	17	4	13	14	
	4	10	2	3	15	4	10	14	
	5	14	2	3	15	4	9	13	
	6	17	2	3	14	4	7	11	
25	1	7	3	5	18	6	20	19	
	2	8	3	5	16	6	17	14	
	3	9	3	5	12	6	15	12	
	4	12	3	5	10	6	12	9	
	5	15	3	5	8	6	12	4	
	6	18	3	5	8	6	9	1	
26	1	3	4	4	16	8	19	19	
	2	6	4	4	12	7	17	18	
	3	8	4	4	12	6	15	18	
	4	13	4	4	10	5	13	18	
	5	14	4	4	8	5	11	17	
	6	16	4	4	5	4	10	17	
27	1	2	4	4	17	11	19	19	
	2	3	4	4	15	10	19	16	
	3	9	4	4	10	10	19	13	
	4	10	3	4	8	8	18	11	
	5	13	3	4	5	5	18	7	
	6	20	2	4	5	5	18	4	
28	1	4	4	4	12	14	11	8	
	2	7	4	3	12	12	11	8	
	3	8	3	2	12	9	11	8	
	4	12	3	2	12	8	11	8	
	5	13	3	2	12	8	10	7	
	6	20	2	1	12	5	10	7	
29	1	6	3	3	17	8	18	18	
	2	8	2	3	15	6	17	13	
	3	10	2	3	13	6	17	13	
	4	16	2	2	13	4	16	7	
	5	17	2	2	10	2	14	6	
	6	19	2	2	10	2	14	4	
30	1	2	4	3	18	19	16	15	
	2	4	4	2	15	17	12	14	
	3	8	3	2	15	16	12	13	
	4	10	3	2	14	14	9	13	
	5	11	2	2	11	10	6	12	
	6	15	2	2	10	9	5	12	
31	1	1	4	2	16	15	12	11	
	2	5	4	2	15	15	12	9	
	3	8	3	2	13	12	11	7	
	4	9	3	2	11	11	11	5	
	5	13	1	2	11	6	10	5	
	6	14	1	2	9	4	9	1	
32	1	3	3	2	11	17	16	16	
	2	4	3	2	9	15	15	16	
	3	11	3	2	7	10	12	15	
	4	12	3	2	7	8	11	13	
	5	18	3	1	4	6	5	13	
	6	19	3	1	4	3	3	12	
33	1	8	2	1	11	3	7	14	
	2	10	2	1	8	2	5	12	
	3	14	2	1	8	2	4	12	
	4	16	2	1	6	1	3	11	
	5	19	2	1	3	1	3	9	
	6	20	2	1	2	1	1	9	
34	1	1	2	3	14	10	17	10	
	2	4	1	3	12	10	17	9	
	3	5	1	3	11	9	14	9	
	4	6	1	3	9	7	11	8	
	5	7	1	3	8	5	11	8	
	6	8	1	3	7	5	8	7	
35	1	3	3	2	4	10	16	9	
	2	11	2	1	3	9	13	7	
	3	16	2	1	3	8	12	7	
	4	17	2	1	2	8	11	6	
	5	18	2	1	2	8	11	5	
	6	20	2	1	2	7	9	3	
36	1	2	3	4	13	15	6	11	
	2	4	2	4	12	15	5	11	
	3	7	2	4	12	15	4	11	
	4	12	2	4	11	14	4	10	
	5	15	1	4	10	14	3	10	
	6	16	1	4	9	14	3	9	
37	1	6	5	3	13	12	19	16	
	2	7	4	3	11	11	15	15	
	3	11	4	3	10	11	15	14	
	4	17	4	3	8	11	14	13	
	5	18	3	3	8	11	12	12	
	6	20	3	3	7	11	10	11	
38	1	7	3	3	12	12	14	5	
	2	9	2	3	11	11	12	4	
	3	10	2	3	10	9	8	4	
	4	15	2	3	10	8	7	3	
	5	16	2	3	8	8	6	3	
	6	19	2	3	8	7	3	3	
39	1	5	5	5	15	15	5	16	
	2	6	4	4	10	12	5	16	
	3	14	3	4	9	9	4	13	
	4	15	3	3	8	8	4	13	
	5	16	3	3	4	5	4	10	
	6	17	2	2	2	5	3	8	
40	1	1	5	3	2	13	11	17	
	2	3	5	3	2	11	9	16	
	3	4	5	3	2	10	9	16	
	4	5	5	3	2	9	8	13	
	5	9	5	3	2	8	7	13	
	6	11	5	3	2	8	6	11	
41	1	6	4	5	8	13	19	12	
	2	9	4	3	6	12	18	11	
	3	10	4	3	6	12	18	10	
	4	12	3	3	4	12	17	9	
	5	13	2	1	3	12	17	8	
	6	19	2	1	2	12	17	8	
42	1	1	4	3	19	13	15	10	
	2	6	3	2	17	10	15	10	
	3	16	3	2	14	9	11	10	
	4	17	2	1	13	7	9	9	
	5	18	2	1	11	5	9	8	
	6	19	2	1	10	3	6	8	
43	1	4	3	1	12	13	8	10	
	2	5	2	1	12	12	6	10	
	3	6	2	1	11	9	6	8	
	4	9	2	1	9	8	5	8	
	5	11	1	1	9	7	4	6	
	6	17	1	1	7	6	3	5	
44	1	10	4	2	6	1	8	14	
	2	13	3	2	6	1	8	11	
	3	16	3	2	5	1	7	10	
	4	18	3	2	4	1	4	8	
	5	19	3	1	2	1	4	8	
	6	20	3	1	2	1	3	6	
45	1	4	3	4	7	13	16	19	
	2	8	3	4	6	13	15	14	
	3	17	3	4	5	12	12	13	
	4	18	3	4	4	11	12	9	
	5	19	3	3	3	10	9	9	
	6	20	3	3	3	10	8	4	
46	1	1	2	3	13	14	4	17	
	2	4	2	3	13	14	4	16	
	3	8	2	3	11	12	4	15	
	4	14	1	2	9	11	4	15	
	5	16	1	2	7	10	4	14	
	6	20	1	2	4	10	4	13	
47	1	3	4	4	7	12	11	12	
	2	4	4	4	6	11	11	12	
	3	5	3	4	6	11	9	12	
	4	6	3	3	5	11	8	12	
	5	8	3	3	5	10	7	12	
	6	18	2	2	5	10	7	12	
48	1	4	1	3	13	15	17	12	
	2	5	1	2	12	15	15	10	
	3	9	1	2	11	14	14	9	
	4	17	1	1	10	12	14	7	
	5	18	1	1	9	10	13	7	
	6	19	1	1	8	9	11	6	
49	1	4	4	5	12	17	19	16	
	2	5	3	5	12	17	18	15	
	3	6	3	5	10	16	15	15	
	4	7	2	5	10	15	12	14	
	5	10	1	5	8	15	11	14	
	6	12	1	5	8	14	9	13	
50	1	4	4	4	19	5	17	19	
	2	7	3	4	16	3	16	18	
	3	8	3	4	16	3	15	18	
	4	14	2	3	15	3	15	17	
	5	16	2	3	13	1	15	15	
	6	18	1	3	12	1	14	14	
51	1	5	4	2	8	14	12	6	
	2	9	4	2	7	12	12	4	
	3	10	4	2	5	10	10	4	
	4	14	3	2	3	10	10	4	
	5	15	3	2	3	9	8	2	
	6	18	3	2	2	8	7	2	
52	1	3	5	5	14	17	9	16	
	2	4	4	4	12	13	7	14	
	3	5	4	4	12	9	6	12	
	4	6	4	4	8	9	4	12	
	5	7	4	3	7	3	3	9	
	6	13	4	3	4	2	2	8	
53	1	1	4	4	4	16	20	19	
	2	4	3	3	4	16	17	17	
	3	13	3	3	4	16	14	17	
	4	14	3	3	4	16	11	16	
	5	16	2	3	4	16	11	15	
	6	17	2	3	4	16	7	14	
54	1	6	4	4	18	11	13	11	
	2	14	4	3	16	10	10	9	
	3	15	4	3	14	9	10	8	
	4	16	3	3	13	9	9	7	
	5	17	2	3	11	7	7	5	
	6	19	2	3	10	7	6	5	
55	1	2	3	3	16	18	17	10	
	2	4	3	2	12	17	16	8	
	3	9	3	2	12	17	14	7	
	4	10	2	2	8	16	13	7	
	5	15	1	2	6	16	12	6	
	6	19	1	2	4	15	12	5	
56	1	2	5	3	12	12	18	17	
	2	9	5	3	11	11	14	15	
	3	13	5	3	9	10	11	13	
	4	15	5	2	9	8	9	9	
	5	16	5	2	6	7	6	7	
	6	17	5	2	6	6	4	3	
57	1	9	5	2	9	16	4	15	
	2	10	5	2	8	15	3	14	
	3	11	5	2	6	14	3	11	
	4	15	5	2	5	14	2	10	
	5	18	5	1	3	14	2	7	
	6	20	5	1	1	13	1	6	
58	1	4	4	5	14	15	15	10	
	2	7	3	5	11	13	15	7	
	3	8	3	5	10	12	15	7	
	4	9	2	5	8	10	15	5	
	5	14	1	5	7	8	15	4	
	6	17	1	5	7	8	15	2	
59	1	5	1	5	20	4	13	13	
	2	11	1	4	17	3	12	12	
	3	12	1	4	16	3	10	12	
	4	16	1	4	12	2	9	11	
	5	17	1	3	11	2	7	10	
	6	18	1	3	10	2	6	9	
60	1	1	2	1	13	5	19	15	
	2	2	2	1	10	5	18	14	
	3	3	2	1	10	5	18	11	
	4	4	2	1	8	5	18	9	
	5	15	2	1	6	5	17	8	
	6	20	2	1	5	5	17	6	
61	1	6	3	3	20	16	20	3	
	2	7	3	2	16	15	18	3	
	3	13	3	2	15	15	15	3	
	4	18	2	2	13	14	14	3	
	5	19	2	2	10	14	13	3	
	6	20	1	2	8	13	11	3	
62	1	3	2	4	9	7	9	19	
	2	4	2	4	7	5	9	18	
	3	10	2	4	6	4	9	18	
	4	11	2	4	5	4	9	18	
	5	14	2	4	5	3	9	18	
	6	15	2	4	4	2	9	18	
63	1	2	3	3	14	16	18	18	
	2	5	2	2	14	16	16	16	
	3	12	2	2	14	16	15	14	
	4	13	1	2	14	16	13	12	
	5	16	1	2	14	16	13	10	
	6	17	1	2	14	16	12	7	
64	1	10	2	5	4	4	12	15	
	2	16	2	4	4	3	12	14	
	3	17	2	4	4	3	9	14	
	4	18	2	4	4	3	8	14	
	5	19	2	4	4	2	6	14	
	6	20	2	4	4	2	4	14	
65	1	2	4	4	10	14	3	16	
	2	3	3	4	8	14	3	15	
	3	4	3	4	5	13	2	14	
	4	10	2	4	4	13	2	13	
	5	16	2	4	3	12	2	11	
	6	17	2	4	2	12	1	11	
66	1	2	3	2	16	15	6	14	
	2	5	3	2	11	14	5	12	
	3	12	3	2	10	14	5	11	
	4	13	2	2	9	13	4	10	
	5	16	2	2	5	11	4	9	
	6	17	1	2	3	11	3	8	
67	1	4	5	3	6	15	15	7	
	2	7	4	3	4	13	14	7	
	3	8	4	3	4	12	12	6	
	4	9	3	3	4	9	11	4	
	5	12	3	3	2	7	11	4	
	6	20	3	3	2	5	10	3	
68	1	2	5	2	10	11	16	12	
	2	8	4	2	9	11	12	12	
	3	14	3	2	9	10	10	12	
	4	18	3	2	8	10	9	12	
	5	19	3	2	6	9	6	12	
	6	20	2	2	5	8	5	12	
69	1	2	4	2	4	17	18	8	
	2	5	3	1	3	16	14	8	
	3	7	3	1	3	14	12	7	
	4	9	3	1	2	11	10	7	
	5	14	3	1	2	8	8	7	
	6	17	3	1	2	6	8	6	
70	1	2	3	3	15	10	15	16	
	2	3	3	3	13	9	15	16	
	3	5	3	3	12	8	15	16	
	4	17	3	3	12	6	15	16	
	5	18	3	3	11	4	14	16	
	6	20	3	3	10	2	14	16	
71	1	7	2	5	19	19	11	20	
	2	8	2	4	18	19	9	15	
	3	9	2	4	18	19	8	15	
	4	10	2	4	18	19	7	13	
	5	11	2	4	17	19	6	10	
	6	12	2	4	17	19	5	7	
72	1	6	2	3	14	10	19	18	
	2	7	2	2	14	10	19	18	
	3	8	2	2	14	9	19	18	
	4	9	2	1	13	7	19	18	
	5	15	2	1	13	6	19	18	
	6	20	2	1	13	6	19	17	
73	1	1	4	2	14	15	18	16	
	2	4	4	2	13	15	13	15	
	3	5	4	2	13	14	12	14	
	4	7	4	2	13	13	9	13	
	5	8	3	2	13	12	7	13	
	6	16	3	2	13	10	4	12	
74	1	4	3	3	13	8	16	9	
	2	8	3	3	11	7	16	7	
	3	9	3	3	11	7	15	7	
	4	13	3	3	9	6	13	4	
	5	17	3	2	6	6	10	3	
	6	19	3	2	5	5	9	2	
75	1	4	3	3	15	7	18	8	
	2	12	3	2	14	7	18	8	
	3	13	3	2	14	6	17	8	
	4	14	2	2	14	6	17	7	
	5	19	2	2	14	4	16	6	
	6	20	1	2	14	4	16	6	
76	1	2	2	4	4	8	8	16	
	2	3	2	3	4	7	6	14	
	3	11	2	3	4	5	6	12	
	4	12	2	3	4	5	3	12	
	5	16	2	3	4	4	3	11	
	6	17	2	3	4	2	1	9	
77	1	3	1	2	6	16	15	9	
	2	10	1	1	6	16	15	9	
	3	11	1	1	5	16	13	7	
	4	18	1	1	4	16	11	5	
	5	19	1	1	2	16	10	3	
	6	20	1	1	1	16	7	3	
78	1	3	5	4	13	9	10	3	
	2	5	4	4	12	7	10	3	
	3	7	4	4	12	6	10	3	
	4	12	4	4	12	6	10	2	
	5	18	4	4	12	5	10	2	
	6	19	4	4	12	3	10	1	
79	1	4	1	5	18	18	11	12	
	2	5	1	4	17	18	9	10	
	3	8	1	4	15	15	8	8	
	4	12	1	4	15	14	6	8	
	5	13	1	4	14	14	6	7	
	6	18	1	4	13	11	5	5	
80	1	1	4	3	12	12	13	12	
	2	2	4	2	10	10	12	11	
	3	13	4	2	8	9	10	10	
	4	16	4	2	7	8	9	8	
	5	18	4	2	7	6	6	7	
	6	19	4	2	4	5	3	6	
81	1	5	2	3	14	3	17	18	
	2	6	2	3	10	3	17	17	
	3	7	2	3	8	3	16	16	
	4	12	2	3	7	3	14	15	
	5	18	2	2	6	3	14	13	
	6	19	2	2	4	3	12	12	
82	1	2	2	3	17	16	3	8	
	2	10	2	2	17	15	2	7	
	3	11	2	2	15	13	2	6	
	4	12	2	1	12	13	2	5	
	5	15	2	1	11	11	2	4	
	6	18	2	1	10	10	2	3	
83	1	2	5	5	18	15	15	16	
	2	6	4	5	17	15	14	14	
	3	10	4	5	17	15	14	11	
	4	12	4	5	16	15	13	10	
	5	17	4	5	14	15	13	9	
	6	18	4	5	14	15	13	7	
84	1	3	4	3	6	12	17	2	
	2	4	3	2	6	11	13	1	
	3	12	3	2	5	11	11	1	
	4	13	2	2	5	11	11	1	
	5	18	1	2	3	11	7	1	
	6	19	1	2	3	11	6	1	
85	1	1	4	5	7	14	17	6	
	2	4	3	5	7	12	17	6	
	3	6	3	5	5	11	16	6	
	4	7	3	5	5	7	16	6	
	5	8	3	5	3	6	14	6	
	6	19	3	5	2	3	14	6	
86	1	3	3	4	9	16	15	17	
	2	5	3	4	8	15	15	15	
	3	14	3	4	6	15	14	14	
	4	18	2	4	5	15	14	13	
	5	19	2	4	3	14	13	12	
	6	20	1	4	2	13	12	11	
87	1	3	2	2	15	7	8	14	
	2	6	2	2	15	7	6	12	
	3	7	2	2	15	7	6	11	
	4	12	2	2	14	6	5	8	
	5	16	1	2	14	6	5	6	
	6	17	1	2	14	5	4	5	
88	1	3	4	5	18	12	19	15	
	2	5	3	4	13	10	15	13	
	3	10	3	4	12	8	13	12	
	4	17	3	3	8	5	13	11	
	5	19	3	3	5	5	11	11	
	6	20	3	3	2	3	7	9	
89	1	8	5	5	17	19	10	16	
	2	9	5	3	14	19	10	14	
	3	10	5	3	12	18	8	13	
	4	13	5	2	11	18	8	12	
	5	14	5	1	10	18	6	11	
	6	15	5	1	7	17	6	9	
90	1	1	3	4	19	9	11	9	
	2	2	2	4	15	8	11	7	
	3	3	2	3	14	8	7	6	
	4	4	2	3	11	6	5	6	
	5	7	1	2	9	5	5	4	
	6	12	1	2	8	5	1	3	
91	1	6	4	4	17	18	15	16	
	2	7	3	4	16	18	14	16	
	3	8	3	4	16	15	13	15	
	4	16	2	4	15	13	12	15	
	5	17	2	4	15	11	10	15	
	6	18	2	4	14	10	8	14	
92	1	5	4	5	13	6	6	9	
	2	11	3	4	12	6	5	8	
	3	13	3	4	11	5	5	7	
	4	15	3	4	10	4	4	7	
	5	16	2	3	8	3	4	5	
	6	17	2	3	8	2	4	4	
93	1	7	2	5	7	12	19	16	
	2	8	2	5	7	9	17	13	
	3	14	2	5	7	8	17	10	
	4	17	1	5	7	7	16	8	
	5	18	1	5	7	6	16	8	
	6	19	1	5	7	6	15	6	
94	1	4	2	4	16	4	5	5	
	2	5	1	4	14	4	4	5	
	3	9	1	4	13	4	4	3	
	4	13	1	3	11	3	4	3	
	5	14	1	3	9	3	4	1	
	6	20	1	3	7	3	4	1	
95	1	5	2	4	19	18	13	14	
	2	6	1	3	18	13	13	12	
	3	13	1	3	17	10	13	11	
	4	14	1	2	17	8	12	9	
	5	15	1	2	15	6	12	9	
	6	19	1	2	15	3	12	7	
96	1	6	3	5	18	11	6	14	
	2	12	3	4	14	11	6	13	
	3	13	3	3	14	8	6	12	
	4	14	3	2	11	8	6	10	
	5	16	3	1	7	4	6	7	
	6	17	3	1	5	3	6	5	
97	1	4	4	5	9	3	16	8	
	2	4	3	4	9	3	14	9	
	3	5	3	4	9	3	14	8	
	4	14	2	3	9	3	11	7	
	5	17	1	3	9	3	10	6	
	6	20	1	3	9	3	8	6	
98	1	4	3	2	8	10	11	19	
	2	6	3	2	8	8	10	18	
	3	7	3	2	8	8	10	17	
	4	8	3	2	7	6	9	16	
	5	13	3	2	7	4	9	14	
	6	14	3	2	6	2	9	13	
99	1	6	3	3	6	10	14	15	
	2	7	3	2	5	9	12	12	
	3	10	2	2	4	7	12	11	
	4	11	2	2	3	7	9	9	
	5	18	2	1	3	4	7	6	
	6	19	1	1	2	4	4	6	
100	1	3	2	5	19	14	14	18	
	2	4	2	4	18	14	10	15	
	3	15	2	4	17	14	9	12	
	4	16	2	4	16	13	6	11	
	5	19	2	4	16	13	5	9	
	6	20	2	4	15	13	4	5	
101	1	5	4	2	3	14	17	17	
	2	10	4	1	2	12	15	16	
	3	11	4	1	2	10	15	14	
	4	13	4	1	2	7	13	13	
	5	15	4	1	2	6	12	9	
	6	20	4	1	2	4	11	8	
102	1	0	0	0	0	0	0	0	
************************************************************************

 RESOURCE AVAILABILITIES 
	R 1	R 2	N 1	N 2	N 3	N 4
	45	56	1111	1066	1227	1196

************************************************************************
